p td 22 54
3 2
4 3
6 3
6 5
7 1
8 5
8 2
8 1
9 2
9 7
10 3
10 8
11 5
11 7
11 10
12 1
12 8
13 1
13 12
13 6
14 2
14 11
14 3
14 1
14 12
14 5
15 7
15 5
15 10
15 3
16 12
16 7
16 13
17 11
17 14
17 1
18 5
18 9
18 17
18 14
19 10
19 17
19 16
19 6
20 19
20 16
20 5
20 17
20 13
21 18
22 12
22 3
22 14
22 1
